(set-logic QF_UF)
(declare-fun A0 () Bool)
(declare-fun A1 () Bool)
(declare-fun A2 () Bool)
(declare-fun A3 () Bool)
(declare-fun A4 () Bool)
(declare-fun A5 () Bool)
(declare-fun A6 () Bool)
(declare-fun A7 () Bool)
(declare-fun A8 () Bool)
(declare-fun A9 () Bool)
(declare-fun A10 () Bool)
(declare-fun A11 () Bool)
(declare-fun A12 () Bool)
(declare-fun A13 () Bool)
(declare-fun A14 () Bool)
(declare-fun A15 () Bool)
(declare-fun A16 () Bool)
(declare-fun A17 () Bool)
(declare-fun A19 () Bool)
(declare-fun A20 () Bool)
(declare-fun A21 () Bool)
(declare-fun A22 () Bool)
(declare-fun A23 () Bool)
(declare-fun A24 () Bool)
(declare-fun A25 () Bool)
(declare-fun A26 () Bool)
(declare-fun A27 () Bool)
(declare-fun A28 () Bool)
(declare-fun A29 () Bool)
(assert (let ((.def_0 (not A4))) (let ((.def_1 (and A4 .def_0))) (let ((.def_2 (not .def_1))) (let ((.def_3 (not A12))) (let ((.def_4 (or .def_3 A13))) (let ((.def_5 (not .def_4))) (let ((.def_6 (or .def_5 .def_2))) (let ((.def_7 (not .def_6))) (let ((.def_8 (not A25))) (let ((.def_9 (or A1 .def_8))) (let ((.def_10 (not .def_9))) (let ((.def_11 (not A1))) (let ((.def_12 (or .def_11 A6))) (let ((.def_13 (not .def_12))) (let ((.def_14 (or .def_13 .def_10))) (let ((.def_15 (not .def_14))) (let ((.def_16 (or .def_15 .def_7))) (let ((.def_17 (and A6 A13))) (let ((.def_18 (not A21))) (let ((.def_19 (and A16 .def_18))) (let ((.def_20 (or .def_19 .def_17))) (let ((.def_21 (not A2))) (let ((.def_22 (and A28 .def_21))) (let ((.def_23 (not .def_22))) (let ((.def_24 (not A27))) (let ((.def_25 (and .def_24 A17))) (let ((.def_26 (or .def_25 .def_23))) (let ((.def_27 (not .def_26))) (let ((.def_28 (and .def_27 .def_20))) (let ((.def_29 (= .def_28 .def_16))) (let ((.def_30 (and .def_24 A8))) (let ((.def_31 (not A22))) (let ((.def_32 (not A24))) (let ((.def_33 (and .def_32 .def_31))) (let ((.def_34 (and .def_33 .def_30))) (let ((.def_35 (not .def_34))) (let ((.def_36 (not A0))) (let ((.def_37 (and .def_36 A26))) (let ((.def_38 (not A9))) (let ((.def_39 (or .def_38 A27))) (let ((.def_40 (and .def_39 .def_37))) (let ((.def_41 (not .def_40))) (let ((.def_42 (and .def_41 .def_35))) (let ((.def_43 (not .def_42))) (let ((.def_44 (not A16))) (let ((.def_45 (or A15 .def_44))) (let ((.def_46 (not .def_45))) (let ((.def_47 (not A5))) (let ((.def_48 (not A26))) (let ((.def_49 (and .def_48 .def_47))) (let ((.def_50 (not .def_49))) (let ((.def_51 (and .def_50 .def_46))) (let ((.def_52 (not A20))) (let ((.def_53 (= .def_52 A1))) (let ((.def_54 (not A23))) (let ((.def_55 (or A14 .def_54))) (let ((.def_56 (or .def_55 .def_53))) (let ((.def_57 (not .def_56))) (let ((.def_58 (and .def_57 .def_51))) (let ((.def_59 (not .def_58))) (let ((.def_60 (or .def_59 .def_43))) (let ((.def_61 (not .def_60))) (let ((.def_62 (or .def_61 .def_29))) (let ((.def_63 (not .def_62))) (let ((.def_64 (and .def_54 A3))) (let ((.def_65 (not .def_64))) (let ((.def_66 (not A10))) (let ((.def_67 (and .def_66 .def_3))) (let ((.def_68 (and .def_67 .def_65))) (let ((.def_69 (and A15 A14))) (let ((.def_70 (not A17))) (let ((.def_71 (or .def_11 .def_70))) (let ((.def_72 (not .def_71))) (let ((.def_73 (or .def_72 .def_69))) (let ((.def_74 (or .def_73 .def_68))) (let ((.def_75 (not .def_74))) (let ((.def_76 (not A29))) (let ((.def_77 (and .def_76 A21))) (let ((.def_78 (not .def_77))) (let ((.def_79 (not A14))) (let ((.def_80 (= A10 .def_79))) (let ((.def_81 (not .def_80))) (let ((.def_82 (or .def_81 .def_78))) (let ((.def_83 (not .def_82))) (let ((.def_84 (= A19 A22))) (let ((.def_85 (not .def_84))) (let ((.def_86 (and .def_0 A7))) (let ((.def_87 (or .def_86 .def_85))) (let ((.def_88 (and .def_87 .def_83))) (let ((.def_89 (not .def_88))) (let ((.def_90 (or .def_89 .def_75))) (let ((.def_91 (not .def_90))) (let ((.def_92 (not A6))) (let ((.def_93 (or .def_21 .def_92))) (let ((.def_94 (and A7 .def_54))) (let ((.def_95 (and .def_94 .def_93))) (let ((.def_96 (not .def_95))) (let ((.def_97 (not A28))) (let ((.def_98 (or .def_97 A5))) (let ((.def_99 (not .def_98))) (let ((.def_100 (and A13 .def_11))) (let ((.def_101 (and .def_100 .def_99))) (let ((.def_102 (and .def_101 .def_96))) (let ((.def_103 (not .def_102))) (let ((.def_104 (not A15))) (let ((.def_105 (= A7 .def_104))) (let ((.def_106 (and A28 A25))) (let ((.def_107 (and .def_106 .def_105))) (let ((.def_108 (and A0 A9))) (let ((.def_109 (or A26 A11))) (let ((.def_110 (or .def_109 .def_108))) (let ((.def_111 (not .def_110))) (let ((.def_112 (= .def_111 .def_107))) (let ((.def_113 (not .def_112))) (let ((.def_114 (or .def_113 .def_103))) (let ((.def_115 (not .def_114))) (let ((.def_116 (and .def_115 .def_91))) (let ((.def_117 (or .def_116 .def_63))) .def_117)))))))))))))))))))))))))))))))))))))))))))))))))))))))))))))))))))))))))))))))))))))))))))))))))))))))))))))))))))))))
(check-sat)
